NAME : mr32
COMMENT : 32-city problem (DISC)
TYPE : TSP
DIMENSION : 32
EDGE_WEIGHT_TYPE : EUC_2D
NODE_COORD_SECTION
1 86 17
2 38 31
3 56 5
4 96 24
5 74 68
6 82 79
7 11 70
8 93 33
9 61 50
10 60 53
11 10 30
12 35 47
13 67 99
14 45 51
15 56 40
16 71 73
17 59 87
18 5 3
19 57 30
20 77 79
21 92 46
22 10 1
23 91 42
24 47 34
25 46 61
26 100 33
27 17 99
28 71 59
29 17 14
30 82 53
31 4 36
32 54 2
EOF
